RT is False
Default write of storage_offers_DA.csv just to have a file (but constraint should be inactive)
Reading model...
...model read.
creating competitive generators file...
...competitive generators recorded.
Loading data...
.. day-ahead data with real-time VRE data read.
Compiling instance...
...instance created.
Creating Offer Mitigation (model will solve as dispatch if TRUE)...
NOTE: storage offers will not be mitigated
...storage offer mitigation file created
Converting model to MPEC...
...converted
NOTE: initial MIP solve with only storage competitive to get feasible solution
Solving...

Welcome to IBM(R) ILOG(R) CPLEX(R) Interactive Optimizer 12.9.0.0
  with Simplex, Mixed Integer & Barrier Optimizers
5725-A06 5725-A29 5724-Y48 5724-Y49 5724-Y54 5724-Y55 5655-Y21
Copyright IBM Corp. 1988, 2019.  All Rights Reserved.

Type 'help' for a list of available commands.
Type 'help' followed by a command name for more
information on commands.

CPLEX> Logfile 'cplex.log' closed.
Logfile 'C:\Users\llavin\Desktop\test826\logs\tmpk6jv508p.cplex.log' open.
CPLEX> New value for parallel optimization mode: -1
CPLEX> New value for emphasis for MIP optimization: 1
CPLEX> New value for mixed integer optimality gap tolerance: 0.01
CPLEX> New value for integrality tolerance: 1e-12
CPLEX> New value for deterministic time limit in ticks: 75000
CPLEX> Problem 'C:\Users\llavin\Desktop\test826\logs\tmpe8cfhoix.pyomo.lp' read.
Read time = 0.22 sec. (13.92 ticks)
CPLEX> Problem name         : C:\Users\llavin\Desktop\test826\logs\tmpe8cfhoix.pyomo.lp
Objective sense      : Maximize
Variables            :   53809  [Nneg: 1,  Box: 22004,  Free: 4464,
                                 Binary: 27340]
Objective nonzeros   :    9029
Linear constraints   :  123253  [Less: 41346,  Greater: 59096,  Equal: 22811]
  Nonzeros           :  293217
  RHS nonzeros       :   67491

Variables            : Min LB: -5000.000        Max UB: 1000000.       
Objective nonzeros   : Min   : 0.3833333        Max   : 2500.000       
Linear constraints   :
  Nonzeros           : Min   : 0.3833333        Max   : 1000000.       
  RHS nonzeros       : Min   : 0.3833333        Max   : 1000000.       
CPLEX> CPXPARAM_Parallel                                -1
CPXPARAM_Emphasis_MIP                            1
CPXPARAM_DetTimeLimit                            75000
CPXPARAM_MIP_Tolerances_MIPGap                   0.01
CPXPARAM_MIP_Tolerances_Integrality              9.9999999999999998e-13
Tried aggregator 4 times.
MIP Presolve eliminated 88697 rows and 19000 columns.
MIP Presolve added 3375 rows and 0 columns.
MIP Presolve modified 24787 coefficients.
Aggregator did 12971 substitutions.
Reduced MIP has 24960 rows, 21282 columns, and 71805 nonzeros.
Reduced MIP has 8410 binaries, 0 generals, 0 SOSs, and 0 indicators.
Presolve time = 0.33 sec. (192.34 ticks)
Probing fixed 391 vars, tightened 4505 bounds.
Probing time = 0.06 sec. (19.12 ticks)
Tried aggregator 2 times.
MIP Presolve eliminated 890 rows and 790 columns.
MIP Presolve modified 3039 coefficients.
Aggregator did 35 substitutions.
Reduced MIP has 24035 rows, 20457 columns, and 69130 nonzeros.
Reduced MIP has 8015 binaries, 0 generals, 0 SOSs, and 0 indicators.
Presolve time = 0.11 sec. (87.69 ticks)
Probing fixed 0 vars, tightened 258 bounds.
Probing time = 0.14 sec. (22.48 ticks)
Clique table members: 43423.
MIP emphasis: integer feasibility.
MIP search method: dynamic search.
Parallel mode: opportunistic, using up to 32 threads.
Root relaxation solution time = 0.44 sec. (638.80 ticks)

        Nodes                                         Cuts/
   Node  Left     Objective  IInf  Best Integer    Best Bound    ItCnt     Gap

      0     0     3994.7190   120                   3994.7190     5746         
*     0+    0                         3988.4320     3994.7190             0.16%

Root node processing (before b&c):
  Real time             =    1.66 sec. (1344.27 ticks)
Parallel b&c, 32 threads:
  Real time             =    0.00 sec. (0.00 ticks)
  Sync time (average)   =    0.00 sec.
  Wait time (average)   =    0.00 sec.
                          ------------
Total (root+branch&cut) =    1.66 sec. (1344.27 ticks)

Solution pool: 1 solution saved.

MIP - Integer optimal, tolerance (0.01/1e-06):  Objective =  3.9884319780e+03
Current MIP best bound =  3.9947189925e+03 (gap = 6.28701, 0.16%)
Solution time =    1.69 sec.  Iterations = 5746  Nodes = 0 (1)
Deterministic time = 1344.42 ticks  (796.93 ticks/sec)

CPLEX> Incumbent solution written to file 'C:\Users\llavin\Desktop\test826\logs\tmp6nc30za3.cplex.sol'.
CPLEX> NOTE: no warmstart specified for MIP iteration, default behavior is true
NOTE: resolving with all competitive generators using storage-only solution to warmstart
Solving...

Welcome to IBM(R) ILOG(R) CPLEX(R) Interactive Optimizer 12.9.0.0
  with Simplex, Mixed Integer & Barrier Optimizers
5725-A06 5725-A29 5724-Y48 5724-Y49 5724-Y54 5724-Y55 5655-Y21
Copyright IBM Corp. 1988, 2019.  All Rights Reserved.

Type 'help' for a list of available commands.
Type 'help' followed by a command name for more
information on commands.

CPLEX> Logfile 'cplex.log' closed.
Logfile 'C:\Users\llavin\Desktop\test826\logs\tmpn2m6_jl1.cplex.log' open.
CPLEX> New value for parallel optimization mode: -1
CPLEX> New value for emphasis for MIP optimization: 1
CPLEX> New value for mixed integer optimality gap tolerance: 0.01
CPLEX> New value for integrality tolerance: 1e-12
CPLEX> New value for deterministic time limit in ticks: 75000
CPLEX> Problem 'C:\Users\llavin\Desktop\test826\logs\tmpvwzu59yt.pyomo.lp' read.
Read time = 0.24 sec. (13.94 ticks)
CPLEX> MIP start file 'C:\Users\llavin\Desktop\test826\logs\tmpqg6mcsil.cplex.mst' read.
CPLEX> Problem name         : C:\Users\llavin\Desktop\test826\logs\tmpvwzu59yt.pyomo.lp
Objective sense      : Maximize
Variables            :   54529  [Nneg: 1,  Box: 22724,  Free: 4464,
                                 Binary: 27340]
Objective nonzeros   :    9725
Linear constraints   :  123253  [Less: 41346,  Greater: 59096,  Equal: 22811]
  Nonzeros           :  293217
  RHS nonzeros       :   67491

Variables            : Min LB: -5000.000        Max UB: 1000000.       
Objective nonzeros   : Min   : 0.3833333        Max   : 2500.000       
Linear constraints   :
  Nonzeros           : Min   : 0.3833333        Max   : 1000000.       
  RHS nonzeros       : Min   : 0.3833333        Max   : 1000000.       
CPLEX> CPXPARAM_Parallel                                -1
CPXPARAM_Emphasis_MIP                            1
CPXPARAM_DetTimeLimit                            75000
CPXPARAM_MIP_Tolerances_MIPGap                   0.01
CPXPARAM_MIP_Tolerances_Integrality              9.9999999999999998e-13
Warning:  No solution found from 1 MIP starts.
Retaining values of one MIP start for possible repair.
Tried aggregator 4 times.
MIP Presolve eliminated 88697 rows and 19720 columns.
MIP Presolve added 3375 rows and 0 columns.
MIP Presolve modified 24787 coefficients.
Aggregator did 12971 substitutions.
Reduced MIP has 24960 rows, 21282 columns, and 71805 nonzeros.
Reduced MIP has 8410 binaries, 0 generals, 0 SOSs, and 0 indicators.
Presolve time = 0.31 sec. (192.75 ticks)
Probing fixed 391 vars, tightened 4505 bounds.
Probing time = 0.08 sec. (19.12 ticks)
Tried aggregator 2 times.
MIP Presolve eliminated 890 rows and 790 columns.
MIP Presolve modified 3039 coefficients.
Aggregator did 35 substitutions.
Reduced MIP has 24035 rows, 20457 columns, and 69130 nonzeros.
Reduced MIP has 8015 binaries, 0 generals, 0 SOSs, and 0 indicators.
Presolve time = 0.11 sec. (87.69 ticks)
Probing fixed 0 vars, tightened 258 bounds.
Probing time = 0.14 sec. (22.48 ticks)
Clique table members: 43423.
MIP emphasis: integer feasibility.
MIP search method: dynamic search.
Parallel mode: opportunistic, using up to 32 threads.
Root relaxation solution time = 0.48 sec. (677.03 ticks)

        Nodes                                         Cuts/
   Node  Left     Objective  IInf  Best Integer    Best Bound    ItCnt     Gap

      0     0    41105.6936   173                  41105.6936     6341         
      0     0    40533.9832    40                    Cuts: 24     6357         
      0     0    40533.9832    40                   Covers: 1     6358         
      0     0    40533.9832    36                   Covers: 1     6359         
Repair heuristic found nothing.
      0    13    40410.0859    32                     Cuts: 3     6388         
Elapsed time = 4.67 sec. (2081.41 ticks, tree = 0.02 MB, solutions = 0)
    745   362    25555.3856     8                  40531.1032     8963         
*  1063+  662                        25433.0663    40531.1032            59.36%
   1623   760    26352.5503    12    25433.0663    40531.1032    18153   59.36%
   2647   865    27134.1091    16    25433.0663    40527.1069    19492   59.35%
   3595  1271    26595.9049    12    25433.0663    39649.0975    22291   55.90%
   4304  1729        cutoff          25433.0663    38933.9638    25951   53.08%
   4713  2374    25483.9867     6    25433.0663    38830.0732    30783   52.68%
   5044  2506    25495.7643     1    25433.0663    38830.0732    31342   52.68%
   5297  2706    25482.4177     1    25479.4380    38830.0732    32611   52.40%
   7431  2761    27046.8189    10    25480.1770    38829.3036    38394   52.39%
Elapsed time = 19.44 sec. (5068.61 ticks, tree = 17.93 MB, solutions = 4)
*  9405+ 2671                        25496.5340    38829.3036            52.29%
   9572  2908    30045.5933    18    25496.5340    38829.3036    40456   52.29%
   9755  2450    infeasible          25496.5340    31647.5312    56485   24.12%
  10618   136    25503.3993     3    25496.5340    27528.9092    62277    7.97%

Cover cuts applied:  3
Implied bound cuts applied:  6
Flow cuts applied:  14
Mixed integer rounding cuts applied:  1
Gomory fractional cuts applied:  5

Root node processing (before b&c):
  Real time             =    2.98 sec. (2046.80 ticks)
Parallel b&c, 32 threads:
  Real time             =   28.23 sec. (7875.94 ticks)
  Sync time (average)   =    2.37 sec.
  Wait time (average)   =    0.23 sec.
                          ------------
Total (root+branch&cut) =   31.22 sec. (9922.74 ticks)

Solution pool: 6 solutions saved.

MIP - Integer optimal, tolerance (0.01/1e-06):  Objective =  2.5496534010e+04
Current MIP best bound =  2.5700062316e+04 (gap = 203.528, 0.80%)
Solution time =   31.25 sec.  Iterations = 62834  Nodes = 10630 (143)
Deterministic time = 9922.89 ticks  (317.53 ticks/sec)

CPLEX> Incumbent solution written to file 'C:\Users\llavin\Desktop\test826\logs\tmp_4d6ky1q.cplex.sol'.
CPLEX> Exporting results... 
